n = 9;
values = 6;

puzzle =
[|
  -1, -1, -1, -1, -1, 3, 0, -1, 1 |
  -1, -1, 1, 2, 6, 5, 4, 0, 3 |
  4, -1, 3, -1, -1, 1, 6, 2, 5 |
  -1, 1, 4, -1, -1, -1, 2, 3, 6 |
  2, 3, -1, 1, -1, -1, 0, -1, -1 |
  0, -1, 0, -1, -1, -1, -1, 1, 4 |
  5, -1, -1, -1, -1, -1, 1, 0, -1 |
  3, -1, -1, -1, 1, -1, -1, 6, -1 |
  1, -1, -1, -1, -1, -1, -1, 4, 2 |
|];

